/*********************************************
 * OPL 12.9.0.0 Data
 * Author: jfb2444
 * Creation Date: Aug 22, 2020 at 11:56:47 AM
 *********************************************/

 n = 8;							
 visNorth	= [4,-1,-1,5,2,-1,-1,4]; 	
 visSouth 	= [-1,-1,2,-1,-1,4,3,-1]; 	
 visWest	= [-1,-1,-1,3,6,3,3,-1]; 	
 visEast	= [-1,5,-1,4,-1,1,3,-1]; 	
 cellClue 	= [	[-1,-1,-1,-1,-1,-1,-1,-1],
 				[-1,-1,-1,-1,2,-1,-1,-1],
 				[-1,-1,-1,-1,-1,-1,-1,-1],
 				[-1,-1,-1,-1,-1,2,-1,4],
 				[-1,-1,5,6,-1,-1,-1,-1],
 				[-1,-1,1,-1,-1,5,4,-1],
 				[-1,-1,-1,-1,-1,-1,-1,-1],
 				[-1,-1,-1,-1,-1,-1,-1,-1] ]; 	